NAME: ETSP
COMMENT: Generated by write_TSPLIB (R package TSP)
TYPE: TSP
DIMENSION: 400
EDGE_WEIGHT_TYPE: EUC_2D
NODE_COORD_SECTION
1 0.000000e+00 0.000000e+00
2 1.000000e+01 0.000000e+00
3 2.000000e+01 0.000000e+00
4 3.000000e+01 0.000000e+00
5 4.000000e+01 0.000000e+00
6 5.000000e+01 0.000000e+00
7 6.000000e+01 0.000000e+00
8 7.000000e+01 0.000000e+00
9 8.000000e+01 0.000000e+00
10 9.000000e+01 0.000000e+00
11 1.000000e+02 0.000000e+00
12 1.100000e+02 0.000000e+00
13 1.200000e+02 0.000000e+00
14 1.300000e+02 0.000000e+00
15 1.400000e+02 0.000000e+00
16 1.500000e+02 0.000000e+00
17 1.600000e+02 0.000000e+00
18 1.700000e+02 0.000000e+00
19 1.800000e+02 0.000000e+00
20 1.900000e+02 0.000000e+00
21 0.000000e+00 1.000000e+01
22 1.000000e+01 1.000000e+01
23 2.000000e+01 1.000000e+01
24 3.000000e+01 1.000000e+01
25 4.000000e+01 1.000000e+01
26 5.000000e+01 1.000000e+01
27 6.000000e+01 1.000000e+01
28 7.000000e+01 1.000000e+01
29 8.000000e+01 1.000000e+01
30 9.000000e+01 1.000000e+01
31 1.000000e+02 1.000000e+01
32 1.100000e+02 1.000000e+01
33 1.200000e+02 1.000000e+01
34 1.300000e+02 1.000000e+01
35 1.400000e+02 1.000000e+01
36 1.500000e+02 1.000000e+01
37 1.600000e+02 1.000000e+01
38 1.700000e+02 1.000000e+01
39 1.800000e+02 1.000000e+01
40 1.900000e+02 1.000000e+01
41 0.000000e+00 2.000000e+01
42 1.000000e+01 2.000000e+01
43 2.000000e+01 2.000000e+01
44 3.000000e+01 2.000000e+01
45 4.000000e+01 2.000000e+01
46 5.000000e+01 2.000000e+01
47 6.000000e+01 2.000000e+01
48 7.000000e+01 2.000000e+01
49 8.000000e+01 2.000000e+01
50 9.000000e+01 2.000000e+01
51 1.000000e+02 2.000000e+01
52 1.100000e+02 2.000000e+01
53 1.200000e+02 2.000000e+01
54 1.300000e+02 2.000000e+01
55 1.400000e+02 2.000000e+01
56 1.500000e+02 2.000000e+01
57 1.600000e+02 2.000000e+01
58 1.700000e+02 2.000000e+01
59 1.800000e+02 2.000000e+01
60 1.900000e+02 2.000000e+01
61 0.000000e+00 3.000000e+01
62 1.000000e+01 3.000000e+01
63 2.000000e+01 3.000000e+01
64 3.000000e+01 3.000000e+01
65 4.000000e+01 3.000000e+01
66 5.000000e+01 3.000000e+01
67 6.000000e+01 3.000000e+01
68 7.000000e+01 3.000000e+01
69 8.000000e+01 3.000000e+01
70 9.000000e+01 3.000000e+01
71 1.000000e+02 3.000000e+01
72 1.100000e+02 3.000000e+01
73 1.200000e+02 3.000000e+01
74 1.300000e+02 3.000000e+01
75 1.400000e+02 3.000000e+01
76 1.500000e+02 3.000000e+01
77 1.600000e+02 3.000000e+01
78 1.700000e+02 3.000000e+01
79 1.800000e+02 3.000000e+01
80 1.900000e+02 3.000000e+01
81 0.000000e+00 4.000000e+01
82 1.000000e+01 4.000000e+01
83 2.000000e+01 4.000000e+01
84 3.000000e+01 4.000000e+01
85 4.000000e+01 4.000000e+01
86 5.000000e+01 4.000000e+01
87 6.000000e+01 4.000000e+01
88 7.000000e+01 4.000000e+01
89 8.000000e+01 4.000000e+01
90 9.000000e+01 4.000000e+01
91 1.000000e+02 4.000000e+01
92 1.100000e+02 4.000000e+01
93 1.200000e+02 4.000000e+01
94 1.300000e+02 4.000000e+01
95 1.400000e+02 4.000000e+01
96 1.500000e+02 4.000000e+01
97 1.600000e+02 4.000000e+01
98 1.700000e+02 4.000000e+01
99 1.800000e+02 4.000000e+01
100 1.900000e+02 4.000000e+01
101 0.000000e+00 5.000000e+01
102 1.000000e+01 5.000000e+01
103 2.000000e+01 5.000000e+01
104 3.000000e+01 5.000000e+01
105 4.000000e+01 5.000000e+01
106 5.000000e+01 5.000000e+01
107 6.000000e+01 5.000000e+01
108 7.000000e+01 5.000000e+01
109 8.000000e+01 5.000000e+01
110 9.000000e+01 5.000000e+01
111 1.000000e+02 5.000000e+01
112 1.100000e+02 5.000000e+01
113 1.200000e+02 5.000000e+01
114 1.300000e+02 5.000000e+01
115 1.400000e+02 5.000000e+01
116 1.500000e+02 5.000000e+01
117 1.600000e+02 5.000000e+01
118 1.700000e+02 5.000000e+01
119 1.800000e+02 5.000000e+01
120 1.900000e+02 5.000000e+01
121 0.000000e+00 6.000000e+01
122 1.000000e+01 6.000000e+01
123 2.000000e+01 6.000000e+01
124 3.000000e+01 6.000000e+01
125 4.000000e+01 6.000000e+01
126 5.000000e+01 6.000000e+01
127 6.000000e+01 6.000000e+01
128 7.000000e+01 6.000000e+01
129 8.000000e+01 6.000000e+01
130 9.000000e+01 6.000000e+01
131 1.000000e+02 6.000000e+01
132 1.100000e+02 6.000000e+01
133 1.200000e+02 6.000000e+01
134 1.300000e+02 6.000000e+01
135 1.400000e+02 6.000000e+01
136 1.500000e+02 6.000000e+01
137 1.600000e+02 6.000000e+01
138 1.700000e+02 6.000000e+01
139 1.800000e+02 6.000000e+01
140 1.900000e+02 6.000000e+01
141 0.000000e+00 7.000000e+01
142 1.000000e+01 7.000000e+01
143 2.000000e+01 7.000000e+01
144 3.000000e+01 7.000000e+01
145 4.000000e+01 7.000000e+01
146 5.000000e+01 7.000000e+01
147 6.000000e+01 7.000000e+01
148 7.000000e+01 7.000000e+01
149 8.000000e+01 7.000000e+01
150 9.000000e+01 7.000000e+01
151 1.000000e+02 7.000000e+01
152 1.100000e+02 7.000000e+01
153 1.200000e+02 7.000000e+01
154 1.300000e+02 7.000000e+01
155 1.400000e+02 7.000000e+01
156 1.500000e+02 7.000000e+01
157 1.600000e+02 7.000000e+01
158 1.700000e+02 7.000000e+01
159 1.800000e+02 7.000000e+01
160 1.900000e+02 7.000000e+01
161 0.000000e+00 8.000000e+01
162 1.000000e+01 8.000000e+01
163 2.000000e+01 8.000000e+01
164 3.000000e+01 8.000000e+01
165 4.000000e+01 8.000000e+01
166 5.000000e+01 8.000000e+01
167 6.000000e+01 8.000000e+01
168 7.000000e+01 8.000000e+01
169 8.000000e+01 8.000000e+01
170 9.000000e+01 8.000000e+01
171 1.000000e+02 8.000000e+01
172 1.100000e+02 8.000000e+01
173 1.200000e+02 8.000000e+01
174 1.300000e+02 8.000000e+01
175 1.400000e+02 8.000000e+01
176 1.500000e+02 8.000000e+01
177 1.600000e+02 8.000000e+01
178 1.700000e+02 8.000000e+01
179 1.800000e+02 8.000000e+01
180 1.900000e+02 8.000000e+01
181 0.000000e+00 9.000000e+01
182 1.000000e+01 9.000000e+01
183 2.000000e+01 9.000000e+01
184 3.000000e+01 9.000000e+01
185 4.000000e+01 9.000000e+01
186 5.000000e+01 9.000000e+01
187 6.000000e+01 9.000000e+01
188 7.000000e+01 9.000000e+01
189 8.000000e+01 9.000000e+01
190 9.000000e+01 9.000000e+01
191 1.000000e+02 9.000000e+01
192 1.100000e+02 9.000000e+01
193 1.200000e+02 9.000000e+01
194 1.300000e+02 9.000000e+01
195 1.400000e+02 9.000000e+01
196 1.500000e+02 9.000000e+01
197 1.600000e+02 9.000000e+01
198 1.700000e+02 9.000000e+01
199 1.800000e+02 9.000000e+01
200 1.900000e+02 9.000000e+01
201 0.000000e+00 1.000000e+02
202 1.000000e+01 1.000000e+02
203 2.000000e+01 1.000000e+02
204 3.000000e+01 1.000000e+02
205 4.000000e+01 1.000000e+02
206 5.000000e+01 1.000000e+02
207 6.000000e+01 1.000000e+02
208 7.000000e+01 1.000000e+02
209 8.000000e+01 1.000000e+02
210 9.000000e+01 1.000000e+02
211 1.000000e+02 1.000000e+02
212 1.100000e+02 1.000000e+02
213 1.200000e+02 1.000000e+02
214 1.300000e+02 1.000000e+02
215 1.400000e+02 1.000000e+02
216 1.500000e+02 1.000000e+02
217 1.600000e+02 1.000000e+02
218 1.700000e+02 1.000000e+02
219 1.800000e+02 1.000000e+02
220 1.900000e+02 1.000000e+02
221 0.000000e+00 1.100000e+02
222 1.000000e+01 1.100000e+02
223 2.000000e+01 1.100000e+02
224 3.000000e+01 1.100000e+02
225 4.000000e+01 1.100000e+02
226 5.000000e+01 1.100000e+02
227 6.000000e+01 1.100000e+02
228 7.000000e+01 1.100000e+02
229 8.000000e+01 1.100000e+02
230 9.000000e+01 1.100000e+02
231 1.000000e+02 1.100000e+02
232 1.100000e+02 1.100000e+02
233 1.200000e+02 1.100000e+02
234 1.300000e+02 1.100000e+02
235 1.400000e+02 1.100000e+02
236 1.500000e+02 1.100000e+02
237 1.600000e+02 1.100000e+02
238 1.700000e+02 1.100000e+02
239 1.800000e+02 1.100000e+02
240 1.900000e+02 1.100000e+02
241 0.000000e+00 1.200000e+02
242 1.000000e+01 1.200000e+02
243 2.000000e+01 1.200000e+02
244 3.000000e+01 1.200000e+02
245 4.000000e+01 1.200000e+02
246 5.000000e+01 1.200000e+02
247 6.000000e+01 1.200000e+02
248 7.000000e+01 1.200000e+02
249 8.000000e+01 1.200000e+02
250 9.000000e+01 1.200000e+02
251 1.000000e+02 1.200000e+02
252 1.100000e+02 1.200000e+02
253 1.200000e+02 1.200000e+02
254 1.300000e+02 1.200000e+02
255 1.400000e+02 1.200000e+02
256 1.500000e+02 1.200000e+02
257 1.600000e+02 1.200000e+02
258 1.700000e+02 1.200000e+02
259 1.800000e+02 1.200000e+02
260 1.900000e+02 1.200000e+02
261 0.000000e+00 1.300000e+02
262 1.000000e+01 1.300000e+02
263 2.000000e+01 1.300000e+02
264 3.000000e+01 1.300000e+02
265 4.000000e+01 1.300000e+02
266 5.000000e+01 1.300000e+02
267 6.000000e+01 1.300000e+02
268 7.000000e+01 1.300000e+02
269 8.000000e+01 1.300000e+02
270 9.000000e+01 1.300000e+02
271 1.000000e+02 1.300000e+02
272 1.100000e+02 1.300000e+02
273 1.200000e+02 1.300000e+02
274 1.300000e+02 1.300000e+02
275 1.400000e+02 1.300000e+02
276 1.500000e+02 1.300000e+02
277 1.600000e+02 1.300000e+02
278 1.700000e+02 1.300000e+02
279 1.800000e+02 1.300000e+02
280 1.900000e+02 1.300000e+02
281 0.000000e+00 1.400000e+02
282 1.000000e+01 1.400000e+02
283 2.000000e+01 1.400000e+02
284 3.000000e+01 1.400000e+02
285 4.000000e+01 1.400000e+02
286 5.000000e+01 1.400000e+02
287 6.000000e+01 1.400000e+02
288 7.000000e+01 1.400000e+02
289 8.000000e+01 1.400000e+02
290 9.000000e+01 1.400000e+02
291 1.000000e+02 1.400000e+02
292 1.100000e+02 1.400000e+02
293 1.200000e+02 1.400000e+02
294 1.300000e+02 1.400000e+02
295 1.400000e+02 1.400000e+02
296 1.500000e+02 1.400000e+02
297 1.600000e+02 1.400000e+02
298 1.700000e+02 1.400000e+02
299 1.800000e+02 1.400000e+02
300 1.900000e+02 1.400000e+02
301 0.000000e+00 1.500000e+02
302 1.000000e+01 1.500000e+02
303 2.000000e+01 1.500000e+02
304 3.000000e+01 1.500000e+02
305 4.000000e+01 1.500000e+02
306 5.000000e+01 1.500000e+02
307 6.000000e+01 1.500000e+02
308 7.000000e+01 1.500000e+02
309 8.000000e+01 1.500000e+02
310 9.000000e+01 1.500000e+02
311 1.000000e+02 1.500000e+02
312 1.100000e+02 1.500000e+02
313 1.200000e+02 1.500000e+02
314 1.300000e+02 1.500000e+02
315 1.400000e+02 1.500000e+02
316 1.500000e+02 1.500000e+02
317 1.600000e+02 1.500000e+02
318 1.700000e+02 1.500000e+02
319 1.800000e+02 1.500000e+02
320 1.900000e+02 1.500000e+02
321 0.000000e+00 1.600000e+02
322 1.000000e+01 1.600000e+02
323 2.000000e+01 1.600000e+02
324 3.000000e+01 1.600000e+02
325 4.000000e+01 1.600000e+02
326 5.000000e+01 1.600000e+02
327 6.000000e+01 1.600000e+02
328 7.000000e+01 1.600000e+02
329 8.000000e+01 1.600000e+02
330 9.000000e+01 1.600000e+02
331 1.000000e+02 1.600000e+02
332 1.100000e+02 1.600000e+02
333 1.200000e+02 1.600000e+02
334 1.300000e+02 1.600000e+02
335 1.400000e+02 1.600000e+02
336 1.500000e+02 1.600000e+02
337 1.600000e+02 1.600000e+02
338 1.700000e+02 1.600000e+02
339 1.800000e+02 1.600000e+02
340 1.900000e+02 1.600000e+02
341 0.000000e+00 1.700000e+02
342 1.000000e+01 1.700000e+02
343 2.000000e+01 1.700000e+02
344 3.000000e+01 1.700000e+02
345 4.000000e+01 1.700000e+02
346 5.000000e+01 1.700000e+02
347 6.000000e+01 1.700000e+02
348 7.000000e+01 1.700000e+02
349 8.000000e+01 1.700000e+02
350 9.000000e+01 1.700000e+02
351 1.000000e+02 1.700000e+02
352 1.100000e+02 1.700000e+02
353 1.200000e+02 1.700000e+02
354 1.300000e+02 1.700000e+02
355 1.400000e+02 1.700000e+02
356 1.500000e+02 1.700000e+02
357 1.600000e+02 1.700000e+02
358 1.700000e+02 1.700000e+02
359 1.800000e+02 1.700000e+02
360 1.900000e+02 1.700000e+02
361 0.000000e+00 1.800000e+02
362 1.000000e+01 1.800000e+02
363 2.000000e+01 1.800000e+02
364 3.000000e+01 1.800000e+02
365 4.000000e+01 1.800000e+02
366 5.000000e+01 1.800000e+02
367 6.000000e+01 1.800000e+02
368 7.000000e+01 1.800000e+02
369 8.000000e+01 1.800000e+02
370 9.000000e+01 1.800000e+02
371 1.000000e+02 1.800000e+02
372 1.100000e+02 1.800000e+02
373 1.200000e+02 1.800000e+02
374 1.300000e+02 1.800000e+02
375 1.400000e+02 1.800000e+02
376 1.500000e+02 1.800000e+02
377 1.600000e+02 1.800000e+02
378 1.700000e+02 1.800000e+02
379 1.800000e+02 1.800000e+02
380 1.900000e+02 1.800000e+02
381 0.000000e+00 1.900000e+02
382 1.000000e+01 1.900000e+02
383 2.000000e+01 1.900000e+02
384 3.000000e+01 1.900000e+02
385 4.000000e+01 1.900000e+02
386 5.000000e+01 1.900000e+02
387 6.000000e+01 1.900000e+02
388 7.000000e+01 1.900000e+02
389 8.000000e+01 1.900000e+02
390 9.000000e+01 1.900000e+02
391 1.000000e+02 1.900000e+02
392 1.100000e+02 1.900000e+02
393 1.200000e+02 1.900000e+02
394 1.300000e+02 1.900000e+02
395 1.400000e+02 1.900000e+02
396 1.500000e+02 1.900000e+02
397 1.600000e+02 1.900000e+02
398 1.700000e+02 1.900000e+02
399 1.800000e+02 1.900000e+02
400 1.900000e+02 1.900000e+02
EOF
